371 5
10 10 10 10 10 

0 0 0 0 0 0 5 2 14 46 78 110 
0 0 0 0 0 0 4 3 4 5 8 
8 0 0 1 0 0 3 10 7 6 
1 0 0 5 0 0 3 10 9 7 
8 0 0 6 0 0 3 11 10 9 
2 0 0 6 0 0 2 11 9 
4 0 0 8 0 0 1 12 
4 0 0 3 0 0 1 9 
1 0 0 6 0 0 1 13 
9 0 0 5 0 0 1 13 
5 0 0 2 0 0 1 13 
6 0 0 8 0 0 1 13 
0 0 0 0 0 0 4 142 164 176 198 
0 0 0 0 0 0 7 15 16 18 20 23 43 44 
10 1 1 0 1 0 4 38 24 19 17 
9 4 3 0 4 0 4 42 41 39 21 
3 9 6 0 7 0 3 37 30 21 
7 5 3 0 3 0 5 39 38 35 33 22 
5 5 7 0 6 0 3 33 25 22 
8 9 6 0 5 0 5 40 39 36 27 24 
3 5 6 0 3 0 2 33 22 
3 7 6 0 3 0 3 34 29 26 
2 7 7 0 7 0 2 38 25 
5 7 4 0 6 0 3 37 33 31 
2 4 6 0 6 0 2 35 29 
6 6 4 0 3 0 1 27 
7 5 6 0 4 0 1 28 
6 7 7 0 6 0 1 31 
1 5 5 0 6 0 1 32 
3 4 5 0 6 0 1 36 
2 3 2 0 6 0 1 45 
2 1 4 0 4 0 1 45 
9 6 3 0 8 0 1 45 
2 8 9 0 3 0 1 45 
5 2 3 0 3 0 1 45 
5 6 7 0 5 0 1 45 
2 7 5 0 5 0 1 45 
7 5 7 0 7 0 1 45 
1 4 3 0 4 0 1 45 
5 3 4 0 7 0 1 45 
3 4 5 0 4 0 1 45 
3 3 5 0 6 0 1 45 
1 4 5 0 5 0 1 45 
5 4 6 0 7 0 1 45 
0 0 0 0 0 0 1 268 
0 0 0 0 0 0 7 47 48 49 51 56 75 76 
9 1 0 1 2 0 4 71 55 52 50 
6 6 0 3 3 0 6 72 71 70 69 68 53 
9 5 0 10 6 0 4 73 72 63 53 
8 6 0 4 4 0 3 68 62 53 
5 4 0 4 5 0 6 74 72 65 62 58 55 
10 5 0 7 5 0 3 66 57 54 
6 4 0 5 6 0 2 66 54 
4 5 0 4 3 0 3 67 61 58 
8 8 0 9 5 0 3 68 66 59 
9 6 0 5 1 0 2 71 57 
10 4 0 6 2 0 2 70 61 
3 9 0 4 7 0 1 59 
6 3 0 3 10 0 1 60 
2 6 0 6 6 0 1 64 
5 3 0 4 8 0 1 65 
9 7 0 6 6 0 1 69 
1 5 0 5 5 0 1 64 
5 4 0 3 6 0 1 77 
4 8 0 5 4 0 1 77 
2 5 0 6 3 0 1 77 
10 5 0 6 6 0 1 77 
6 3 0 8 4 0 1 77 
6 7 0 7 10 0 1 77 
3 2 0 3 6 0 1 77 
1 5 0 5 5 0 1 77 
5 6 0 4 3 0 1 77 
4 3 0 2 4 0 1 77 
8 6 0 5 1 0 1 77 
8 5 0 4 5 0 1 77 
7 4 0 6 9 0 1 77 
0 0 0 0 0 0 1 268 
0 0 0 0 0 0 6 79 80 81 82 86 108 
3 0 2 1 0 1 4 91 85 84 83 
10 0 4 5 0 5 6 106 101 97 96 90 87 
6 0 6 8 0 5 5 97 96 91 90 87 
6 0 5 4 0 7 6 107 104 101 98 97 85 
8 0 2 7 0 7 4 101 98 96 87 
3 0 7 7 0 4 3 102 89 88 
4 0 7 5 0 5 4 102 96 95 92 
7 0 3 5 0 6 4 105 93 91 89 
5 0 5 5 0 5 2 102 88 
3 0 10 7 0 8 3 104 95 92 
6 0 3 3 0 6 3 101 99 95 
10 0 4 5 0 3 1 92 
3 0 5 5 0 5 2 101 94 
9 0 2 3 0 6 1 93 
1 0 4 4 0 4 1 94 
9 0 6 8 0 5 1 99 
5 0 5 10 0 7 1 100 
7 0 10 6 0 3 1 103 
3 0 5 4 0 3 1 99 
1 0 8 2 0 7 1 103 
4 0 5 3 0 2 1 109 
3 0 4 6 0 2 1 109 
6 0 6 7 0 5 1 109 
5 0 4 5 0 6 1 109 
9 0 3 5 0 6 1 109 
5 0 1 5 0 8 1 109 
9 0 3 5 0 4 1 109 
10 0 6 3 0 4 1 109 
9 0 10 4 0 6 1 109 
6 0 5 3 0 5 1 109 
0 0 0 0 0 0 1 268 
0 0 0 0 0 0 6 111 112 113 114 115 116 
7 0 2 0 1 1 3 119 118 117 
5 0 4 0 3 5 3 128 119 117 
10 0 3 0 5 6 3 128 119 117 
10 0 4 0 4 7 3 122 121 118 
10 0 2 0 4 3 3 122 121 118 
1 0 6 0 3 4 2 118 117 
10 0 4 0 9 6 5 126 124 123 121 120 
9 0 3 0 2 5 5 128 126 124 123 120 
4 0 7 0 5 3 2 125 122 
3 0 6 0 3 4 3 130 129 127 
3 0 2 0 4 10 3 130 129 127 
9 0 8 0 4 6 3 130 129 127 
9 0 6 0 5 3 2 130 127 
10 0 4 0 6 3 2 130 127 
9 0 10 0 5 5 2 130 127 
2 0 5 0 3 5 1 127 
7 0 5 0 6 6 3 135 132 131 
5 0 7 0 5 4 2 131 129 
9 0 6 0 6 5 4 140 136 135 133 
1 0 3 0 5 3 3 135 133 131 
4 0 3 0 6 6 2 136 134 
8 0 3 0 3 5 2 140 133 
9 0 6 0 5 4 1 134 
2 0 6 0 6 6 2 139 138 
4 0 6 0 8 5 2 139 138 
4 0 3 0 6 10 1 137 
7 0 7 0 7 4 1 138 
6 0 6 0 6 5 1 141 
5 0 6 0 6 4 1 141 
7 0 7 0 9 7 1 141 
0 0 0 0 0 0 1 268 
0 0 0 0 0 0 6 143 145 147 151 154 162 
10 0 1 0 1 0 2 150 144 
3 0 6 0 4 0 4 161 159 153 146 
10 0 8 0 5 0 2 150 146 
10 0 6 0 8 0 3 160 155 149 
3 0 7 0 4 0 2 152 148 
1 0 3 0 5 0 3 159 156 153 
5 0 4 0 7 0 3 158 157 156 
5 0 5 0 5 0 1 152 
10 0 6 0 4 0 1 152 
4 0 6 0 10 0 1 155 
4 0 2 0 9 0 1 155 
2 0 4 0 5 0 1 156 
5 0 6 0 5 0 1 163 
5 0 3 0 4 0 1 163 
1 0 3 0 4 0 1 163 
1 0 5 0 5 0 1 163 
3 0 8 0 4 0 1 163 
1 0 6 0 5 0 1 163 
8 0 6 0 4 0 1 163 
3 0 5 0 2 0 1 163 
0 0 0 0 0 0 1 268 
0 0 0 0 0 0 4 165 166 168 169 
6 1 0 0 0 0 2 174 167 
7 5 0 0 0 0 4 173 172 171 170 
6 8 0 0 0 0 3 173 171 170 
5 4 0 0 0 0 3 172 171 170 
8 3 0 0 0 0 3 172 171 170 
6 6 0 0 0 0 1 175 
3 4 0 0 0 0 1 175 
6 7 0 0 0 0 1 175 
10 7 0 0 0 0 1 175 
6 5 0 0 0 0 1 175 
0 0 0 0 0 0 4 220 232 244 256 
0 0 0 0 0 0 8 177 178 179 181 182 183 184 187 
1 0 2 0 0 1 3 196 188 180 
1 0 4 0 0 8 5 196 194 190 188 185 
8 0 6 0 0 8 6 196 195 194 193 192 188 
10 0 4 0 0 4 4 195 194 186 185 
7 0 5 0 0 6 5 195 194 193 192 188 
6 0 2 0 0 6 4 195 194 192 186 
3 0 2 0 0 4 3 196 189 185 
1 0 5 0 0 5 4 194 193 192 189 
2 0 6 0 0 7 3 193 192 191 
5 0 5 0 0 7 2 193 189 
9 0 6 0 0 5 2 192 191 
5 0 5 0 0 3 1 189 
4 0 6 0 0 5 1 191 
7 0 7 0 0 5 1 191 
7 0 10 0 0 2 1 197 
7 0 5 0 0 4 1 197 
4 0 5 0 0 6 1 197 
1 0 4 0 0 5 1 197 
10 0 6 0 0 2 1 197 
8 0 5 0 0 7 1 197 
0 0 0 0 0 0 1 268 
0 0 0 0 0 0 7 199 200 202 203 204 217 218 
6 0 0 1 0 1 4 216 214 206 201 
10 0 0 7 0 8 6 215 214 212 209 208 206 
3 0 0 7 0 6 4 215 212 208 205 
4 0 0 4 0 4 5 215 214 212 211 206 
1 0 0 6 0 9 5 214 213 212 208 207 
10 0 0 7 0 4 4 215 214 212 206 
3 0 0 7 0 7 3 213 211 207 
10 0 0 4 0 4 1 207 
6 0 0 2 0 4 1 210 
4 0 0 6 0 7 1 211 
8 0 0 6 0 7 1 213 
8 0 0 5 0 5 1 219 
5 0 0 1 0 1 1 219 
5 0 0 4 0 6 1 219 
4 0 0 4 0 5 1 219 
5 0 0 7 0 5 1 219 
1 0 0 4 0 3 1 219 
10 0 0 7 0 4 1 219 
2 0 0 6 0 6 1 219 
1 0 0 5 0 4 1 219 
0 0 0 0 0 0 1 268 
0 0 0 0 0 0 5 221 223 224 229 230 
2 0 0 0 1 0 3 228 227 222 
1 0 0 0 5 0 2 226 225 
1 0 0 0 4 0 1 225 
7 0 0 0 7 0 1 225 
5 0 0 0 8 0 1 231 
6 0 0 0 4 0 1 231 
10 0 0 0 4 0 1 231 
7 0 0 0 6 0 1 231 
2 0 0 0 4 0 1 231 
9 0 0 0 7 0 1 231 
0 0 0 0 0 0 1 268 
0 0 0 0 0 0 4 233 234 236 238 
6 0 0 0 0 1 2 242 237 
9 0 0 0 0 6 1 235 
10 0 0 0 0 6 4 242 241 240 239 
8 0 0 0 0 8 1 237 
1 0 0 0 0 6 3 241 240 239 
9 0 0 0 0 7 3 242 240 239 
2 0 0 0 0 4 1 243 
10 0 0 0 0 6 1 243 
8 0 0 0 0 4 1 243 
7 0 0 0 0 2 1 243 
0 0 0 0 0 0 1 268 
0 0 0 0 0 0 5 245 246 247 253 254 
3 0 0 0 0 1 2 250 248 
4 0 0 0 0 3 2 252 251 
4 0 0 0 0 3 2 250 249 
5 0 0 0 0 4 1 249 
9 0 0 0 0 7 1 255 
6 0 0 0 0 9 1 255 
7 0 0 0 0 4 1 255 
6 0 0 0 0 10 1 255 
10 0 0 0 0 5 1 255 
4 0 0 0 0 4 1 255 
0 0 0 0 0 0 1 268 
0 0 0 0 0 0 4 257 258 259 260 
4 1 0 0 0 0 2 262 261 
9 6 0 0 0 0 2 262 261 
7 5 0 0 0 0 2 262 261 
7 4 0 0 0 0 3 266 265 262 
4 4 0 0 0 0 4 266 265 264 263 
7 4 0 0 0 0 2 264 263 
6 3 0 0 0 0 1 267 
10 9 0 0 0 0 1 267 
4 8 0 0 0 0 1 267 
9 6 0 0 0 0 1 267 
0 0 0 0 0 0 1 268 
0 0 0 0 0 0 4 269 281 303 325 
0 0 0 0 0 0 4 270 271 272 273 
4 1 0 0 0 0 4 279 278 276 274 
5 3 0 0 0 0 2 275 274 
10 4 0 0 0 0 2 278 276 
6 5 0 0 0 0 1 275 
1 4 0 0 0 0 1 277 
10 7 0 0 0 0 1 276 
10 8 0 0 0 0 1 280 
1 3 0 0 0 0 1 280 
10 9 0 0 0 0 1 280 
5 6 0 0 0 0 1 280 
0 0 0 0 0 0 2 347 359 
0 0 0 0 0 0 7 282 283 284 286 287 288 289 
3 0 1 1 0 0 3 301 293 285 
6 0 2 8 0 0 6 301 300 298 295 293 291 
3 0 6 5 0 0 5 301 296 295 293 290 
4 0 5 7 0 0 4 300 295 291 290 
8 0 4 4 0 0 4 300 295 292 291 
6 0 4 5 0 0 5 300 299 298 295 293 
6 0 8 4 0 0 5 300 299 298 295 293 
1 0 8 5 0 0 3 301 294 290 
3 0 5 8 0 0 3 299 298 297 
2 0 5 4 0 0 2 299 294 
10 0 4 5 0 0 2 298 297 
9 0 6 4 0 0 1 294 
2 0 5 6 0 0 1 297 
8 0 3 2 0 0 1 297 
1 0 7 10 0 0 1 297 
1 0 7 3 0 0 1 302 
5 0 7 7 0 0 1 302 
5 0 4 3 0 0 1 302 
9 0 7 6 0 0 1 302 
3 0 2 3 0 0 1 302 
0 0 0 0 0 0 1 371 
0 0 0 0 0 0 9 304 305 307 308 309 311 314 322 323 
6 1 0 0 0 1 3 321 319 306 
4 7 0 0 0 6 4 320 319 318 313 
6 4 0 0 0 5 2 316 310 
5 7 0 0 0 2 3 317 316 315 
10 3 0 0 0 5 2 318 312 
4 5 0 0 0 4 2 316 312 
5 5 0 0 0 5 1 312 
3 5 0 0 0 10 1 313 
9 7 0 0 0 6 1 315 
4 3 0 0 0 2 1 315 
4 4 0 0 0 2 1 317 
4 8 0 0 0 6 1 324 
10 5 0 0 0 6 1 324 
1 8 0 0 0 6 1 324 
5 1 0 0 0 5 1 324 
3 9 0 0 0 5 1 324 
4 5 0 0 0 4 1 324 
6 2 0 0 0 7 1 324 
2 5 0 0 0 4 1 324 
6 6 0 0 0 9 1 324 
0 0 0 0 0 0 1 371 
0 0 0 0 0 0 7 326 329 332 334 343 344 345 
8 1 1 0 0 0 3 342 339 327 
9 3 6 0 0 0 3 341 333 328 
6 4 8 0 0 0 3 340 335 330 
8 5 5 0 0 0 2 338 331 
4 9 6 0 0 0 2 337 336 
6 3 6 0 0 0 2 339 335 
5 9 3 0 0 0 2 338 335 
3 8 6 0 0 0 1 335 
7 3 3 0 0 0 1 338 
4 6 6 0 0 0 1 346 
3 7 5 0 0 0 1 346 
4 4 6 0 0 0 1 346 
9 2 3 0 0 0 1 346 
7 6 6 0 0 0 1 346 
3 5 5 0 0 0 1 346 
5 4 6 0 0 0 1 346 
1 8 6 0 0 0 1 346 
6 5 7 0 0 0 1 346 
8 6 3 0 0 0 1 346 
4 2 3 0 0 0 1 346 
0 0 0 0 0 0 1 371 
0 0 0 0 0 0 4 348 349 351 352 
10 0 1 0 0 0 2 357 350 
6 0 6 0 0 0 4 356 355 354 353 
4 0 4 0 0 0 3 355 354 353 
3 0 7 0 0 0 3 357 356 353 
4 0 6 0 0 0 1 353 
4 0 5 0 0 0 1 358 
4 0 3 0 0 0 1 358 
8 0 7 0 0 0 1 358 
6 0 8 0 0 0 1 358 
1 0 3 0 0 0 1 358 
0 0 0 0 0 0 1 371 
0 0 0 0 0 0 3 360 362 363 
4 1 0 0 0 0 3 368 364 361 
5 5 0 0 0 0 4 369 367 366 365 
5 7 0 0 0 0 4 368 367 366 365 
6 3 0 0 0 0 4 368 367 366 365 
5 6 0 0 0 0 2 366 365 
5 7 0 0 0 0 1 370 
3 4 0 0 0 0 1 370 
8 4 0 0 0 0 1 370 
4 6 0 0 0 0 1 370 
10 7 0 0 0 0 1 370 
0 0 0 0 0 0 1 371 
0 0 0 0 0 0 0 
